p cnf 41 115
a 33 9 0
e 1 2 3 4 5 6 7 8 10 11 12 13 14 15 16 17 18 19 20 21 22 23 24 25 26 27 28 29 30 31 32 34 35 36 37 38 39 40 41 0
3 1 0
3 -2 0
-1 2 -3 0
-5 -2 0
-5 4 0
2 -4 5 0
-6 3 0
-6 5 0
-3 -5 6 0
8 -6 0
8 -7 0
6 7 -8 0
9 -10 -11 0
-9 10 -11 0
9 10 11 0
-9 -10 11 0
12 -13 0
-12 -13 0
15 13 0
15 14 0
-13 -14 -15 0
16 11 0
16 -15 0
-11 15 -16 0
17 -2 0
17 -5 0
2 5 -17 0
-18 17 0
-18 10 0
-17 -10 18 0
-19 -18 0
-19 -2 0
18 2 19 0
20 -7 0
20 3 0
7 -3 -20 0
-19 -20 -21 0
19 20 -21 0
-19 20 21 0
19 -20 21 0
-16 -21 -22 0
16 21 -22 0
-16 21 22 0
16 -21 22 0
-8 22 -23 0
8 -22 -23 0
-8 -22 23 0
8 22 23 0
-24 -6 0
-24 -7 0
6 7 24 0
23 -24 -25 0
-23 24 -25 0
23 24 25 0
-23 -24 25 0
-10 -26 -27 0
10 26 -27 0
-10 26 27 0
10 -26 27 0
-28 17 0
-28 -4 0
-17 4 28 0
-9 10 -29 0
9 -10 -29 0
-9 -10 29 0
9 10 29 0
-30 29 0
-30 -26 0
-29 26 30 0
-28 -30 -31 0
28 30 -31 0
-28 30 31 0
28 -30 31 0
32 -27 0
32 -31 0
27 31 -32 0
-33 25 0
-33 32 0
-25 -32 33 0
-35 34 0
-35 3 0
-34 -3 35 0
10 34 -36 0
-10 -34 -36 0
10 -34 36 0
-10 34 36 0
37 36 0
37 -4 0
-36 4 -37 0
34 -6 -38 0
-34 6 -38 0
34 6 38 0
-34 -6 38 0
39 -37 0
39 38 0
37 -38 -39 0
-35 39 -40 0
35 -39 -40 0
-35 -39 40 0
35 39 40 0
-33 40 -41 0
33 -40 -41 0
-33 -40 41 0
33 40 41 0
5 -15 30 0
-38 15 -9 -31 0
-23 34 -37 26 12 20 0
-28 -33 12 1 -14 0
18 -39 21 0
-40 32 -19 -14 35 23 -11 0
-32 -40 -7 23 35 37 22 0
32 -9 6 36 30 -10 0
12 32 25 33 0
-31 -33 -26 6 -18 -29 0
41 0
